certificates/rado_a9_c127_N17.cnf
c Rad2 upper bound instance: x1 + 9*x2 - x3 = 127, interval [1,17]
p cnf 17 62
1 9 15 0
-1 -9 -15 0
1 2 14 0
-1 -2 -14 0
2 10 15 0
-2 -10 -15 0
2 3 14 0
-2 -3 -14 0
3 11 15 0
-3 -11 -15 0
3 4 14 0
-3 -4 -14 0
4 12 15 0
-4 -12 -15 0
4 5 14 0
-4 -5 -14 0
5 13 15 0
-5 -13 -15 0
5 6 14 0
-5 -6 -14 0
6 14 15 0
-6 -14 -15 0
6 7 14 0
-6 -7 -14 0
7 15 0
-7 -15 0
7 8 14 0
-7 -8 -14 0
8 15 16 0
-8 -15 -16 0
8 9 14 0
-8 -9 -14 0
9 15 17 0
-9 -15 -17 0
9 10 14 0
-9 -10 -14 0
1 11 13 0
-1 -11 -13 0
10 11 14 0
-10 -11 -14 0
2 12 13 0
-2 -12 -13 0
11 12 14 0
-11 -12 -14 0
3 13 0
-3 -13 0
12 13 14 0
-12 -13 -14 0
4 13 14 0
-4 -13 -14 0
13 14 0
-13 -14 0
14 15 0
-14 -15 0
6 13 16 0
-6 -13 -16 0
14 15 16 0
-14 -15 -16 0
7 13 17 0
-7 -13 -17 0
14 16 17 0
-14 -16 -17 0
