certificates/rado_a9_c127_N17.drat
-16 -17 0
d -16 -14 -17 0
-15 -17 0
-17 0
15 0
-7 0
-14 0
6 0
8 0
13 0
16 0
0
